$$$$$$$$$$$$$$$$$$$$$$$$$$$$$$$$$$$$$$$$$$$$$$$$$$$$$$$$$$$$$$$$$$$$$$$$$$$$$$
$ Date: 2022-08-31 08:15
$ Components: CU, MG, VA
$ Phases: CUMG2, FCC_A1, HCP_A3, LAVES_C15, LIQUID
$ Generated by jgabriel (pycalphad 0.9.2)
$$$$$$$$$$$$$$$$$$$$$$$$$$$$$$$$$$$$$$$$$$$$$$$$$$$$$$$$$$$$$$$$$$$$$$$$$$$$$$

ELEMENT CU FCC_A1 63.546 5004.1 33.15 !
ELEMENT MG HCP_A3 24.305 4998.0 32.671 !
ELEMENT VA VACUUM 0.0 0.0 0.0 !


FUNCTION AA000A 1.0 -500.0*AA00B# - 3107.3040492111*AA00C# + GINTSOLAA298# -
   125000000.0*VV0015# - 250000.0*VV0016# - 0.002*VV0017#; 10000.0 N !
FUNCTION AA000C 1.0 -AA000D#*(AA0022# + 100.0) - 1.0E-18*AA00F#*(0.01*AA0022#
   + 1)**(-9) + GINTSOLAATB# - VV0018#*(AA0022# + 100.0)*LN(AA0022# + 100.0);
   10000.0 N !
FUNCTION AA000D 1.0 -SLOWSTB# - VV0018#*LN(AA0022#) - VV0018# +
   9*AA00F#*AA0022#**(-10); 10000.0 N !
FUNCTION AA000E 1.0 -500.0*AA000F1# - 3107.3040492111*AA00C# -
   7.8125E+18*AA00G# + GINTLIQAA298# - 125000000.0*VV0015# - 250000.0*VV0016#
   - 0.002*VV0017#; 10000.0 N !
FUNCTION AA000F1 1.0 -7*AA0022#**6*AA00G# - 3*AA0022#**2*VV0015# -
   2*AA0022#*VV0016# - AA00C#*LN(AA0022#) - AA00C# + AA00H# +
   VV0018#*LN(AA0022#) + VV0018# + VV0017#*AA0022#**(-2); 10000.0 N !
FUNCTION AA000G 1.0 -AA00H#*(AA0022# + 100.0) + GINTLIQAATB# -
   VV0018#*(AA0022# + 100.0)*LN(AA0022# + 100.0); 10000.0 N !
FUNCTION AA0022 1.0 1357.77; 10000.0 N !
FUNCTION AA00B 1.0 -6.69759671556911*AA00C# - 266680.2675*VV0015# -
   596.3*VV0016# + 1.12494262441071E-5*VV0017# - VV0019#; 10000.0 N !
FUNCTION AA00C 1.0 -6*AA0022#**2*VV0015# - 2*AA0022#*VV0016# + VV0018# -
   2*VV0017#*AA0022#**(-2) + 90*AA00F#*AA0022#**(-10); 10000.0 N !
FUNCTION AA00F 1.0 AA0022#**11*(-12*AA0022#*VV0015# - 2*VV0016# +
   4*VV0017#*AA0022#**(-3))*(1/900); 10000.0 N !
FUNCTION AA00G 1.0 (-6*AA0022#**2*VV0015# - 2*AA0022#*VV0016# - AA00C# +
   VV0018# - 2*VV0017#*AA0022#**(-2))/(42*AA0022#**6); 10000.0 N !
FUNCTION AA00H 1.0 -VV0018#*LN(AA0022#) - VV0018# - VV0020#; 10000.0 N !
FUNCTION GFCCCU 298.15 GHSERCU#; 3200.0 N !
FUNCTION GFCCMG 298.15 -0.9*T + GHSERMG# + 2600; 3000.0 N !
FUNCTION GHCPCU 298.15 0.2*T + GHSERCU# + 600; 3200.0 N !
FUNCTION GHCPMG 298.15 GHSERMG#; 3000.0 N !
FUNCTION GHSERCU 298.15 T**3*VV0015# + T**2*VV0016# + T*AA00B# +
   T*AA00C#*LN(T) + AA000A# + VV0017#*T**(-1); 1357.77 Y T*AA000D# +
   T*VV0018#*LN(T) + AA000C# + AA00F#*T**(-9); 3200.0 N !
FUNCTION GHSERMG 298.15 -1.393669E-6*T**3 + 0.0004858*T**2 -
   26.1849782*T*LN(T) + 143.675547*T - 8367.34 + 78950*T**(-1); 923.0 Y
   -34.3088*T*LN(T) + 204.716215*T - 14130.185 + 1.038192E+28*T**(-9); 3000.0
   N !
FUNCTION GHSERVA 1 0; 10000 N !
FUNCTION GINTLIQAA298 1.0 500.0*AA000F1# + 3405.4540492111*AA00C# +
   9.06909389712622E+18*AA00G# + 178007147.83675*VV0015# +
   338893.4225*VV0016# - 0.00470803286936106*VV0017# + VV0021#; 10000.0 N !
FUNCTION GINTLIQAATB 1.0 -AA00C#*(AA0022# - 298.15) - 6*AA00G#*(AA0022#**7 -
   2.09432316187704E+17) - 2*VV0015#*(AA0022#**3 - 26503573.918375) -
   VV0016#*(AA0022#**2 - 88893.4225) + 2*VV0017#*(-0.00335401643468053 +
   AA0022#**(-1)) - 100.0*VV0018# + VV0021# - (AA0022# + 100.0)*(-AA00H# -
   VV0018#*LN(AA0022# + 100.0) - VV0018#); 10000.0 N !
FUNCTION GINTSOLAA298 1.0 500.0*AA00B# + 298.15*AA00C# + 500.0*AA00C#*LN(500)
   + 178007147.83675*VV0015# + 338893.4225*VV0016# -
   0.00470803286936106*VV0017#; 10000.0 N !
FUNCTION GINTSOLAATB 1.0 -AA00C#*(AA0022# - 298.15) +
   AA00F#*(1/100000000000000000) - 2*VV0015#*(AA0022#**3 - 26503573.918375) -
   VV0016#*(AA0022#**2 - 88893.4225) + 2*VV0017#*(-0.00335401643468053 +
   AA0022#**(-1)) - 100*VV0018# - (AA0022# + 100.0)*(-AA000D# +
   9.0E-20*AA00F#*(0.01*AA0022# + 1)**(-10) - VV0018#*LN(AA0022# + 100.0) -
   VV0018#); 10000.0 N !
FUNCTION GLIQCU 298.15 T**7*AA00G# + T**3*VV0015# + T**2*VV0016# + T*AA000F1#
   + T*AA00C#*LN(T) + AA000E# + VV0017#*T**(-1); 1357.77 Y T*AA00H# +
   T*VV0018#*LN(T) + AA000G#; 3200.0 N !
FUNCTION GLIQMG 298.15 -8.0176E-20*T**7 - 8.83693*T + GHSERMG# + 8202.243;
   923.0 Y -34.3088*T*LN(T) + 195.324057*T - 5439.869; 3000.0 N !
FUNCTION SHILTB 1.0 -AA00H# - VV0018#*LN(AA0022#) - VV0018#; 10000.0 N !
FUNCTION SHISTB 1.0 -AA000D# - VV0018#*LN(AA0022#) - VV0018# +
   9*AA00F#*AA0022#**(-10); 10000.0 N !
FUNCTION SLOWLTB 1.0 -AA000F1# - 7*AA0022#**6*AA00G# + AA00B# + SLOWSTB#;
   10000.0 N !
FUNCTION SLOWSTB 1.0 -3*AA0022#**2*VV0015# - 2*AA0022#*VV0016# - AA00B# -
   AA00C#*LN(AA0022#) - AA00C# + VV0017#*AA0022#**(-2); 10000.0 N !
FUNCTION VV0000 1 -30991.702277373; 10000 N !
FUNCTION VV0001 1 4014.25885428873; 10000 N !
FUNCTION VV0002 1 -16541.225840537; 10000 N !
FUNCTION VV0003 1 -24133.1470598321; 10000 N !
FUNCTION VV0004 1 19250.1597175347; 10000 N !
FUNCTION VV0005 1 46796.4665961264; 10000 N !
FUNCTION VV0006 1 -37397.4227503981; 10000 N !
FUNCTION VV0007 1 104789.950787152; 10000 N !
FUNCTION VV0008 1 21741.2556845733; 10000 N !
FUNCTION VV0009 1 6830.48663614155; 10000 N !
FUNCTION VV0010 1 19490.522824721; 10000 N !
FUNCTION VV0011 1 2822.29811978937; 10000 N !
FUNCTION VV0012 1 -4391.10506077545; 10000 N !
FUNCTION VV0013 1 -2187.10596512911; 10000 N !
FUNCTION VV0014 1 -34611.2663960047; 10000 N !
FUNCTION VV0015 1 8.49274401328934E-8; 10000 N !
FUNCTION VV0016 1 -0.00334095413641019; 10000 N !
FUNCTION VV0017 1 30648.9100071492; 10000 N !
FUNCTION VV0018 1 -32.0304268320183; 10000 N !
FUNCTION VV0019 1 13.3565538929292; 10000 N !
FUNCTION VV0020 1 64.2568622000393; 10000 N !
FUNCTION VV0021 1 12652.7631540857; 10000 N !

TYPE_DEFINITION % SEQ * !
DEFINE_SYSTEM_DEFAULT ELEMENT 2 !
DEFAULT_COMMAND DEFINE_SYSTEM_ELEMENT VA !

PHASE CUMG2 %  2 1.0 2.0 !
CONSTITUENT CUMG2 :CU:MG: !

PHASE FCC_A1 %  1 1.0 !
CONSTITUENT FCC_A1 :CU,MG: !

PHASE HCP_A3 %  1 1.0 !
CONSTITUENT HCP_A3 :CU,MG: !

PHASE LAVES_C15 %  2 2.0 1.0 !
CONSTITUENT LAVES_C15 :CU,MG:CU,MG: !

PHASE LIQUID %  1 1.0 !
CONSTITUENT LIQUID :CU,MG: !



$$$$$$$$$$$$$$$$$$$$$$$$$$$$$$$$$$$$$$$$$$$$$$$$$$$$$$$$$$$$$$$$$$$$$$$$$$$$$$
$                                     CU                                     $
$$$$$$$$$$$$$$$$$$$$$$$$$$$$$$$$$$$$$$$$$$$$$$$$$$$$$$$$$$$$$$$$$$$$$$$$$$$$$$

PARAMETER G(FCC_A1,CU;0) 1.0 GFCCCU#; 10000.0 N !
PARAMETER G(HCP_A3,CU;0) 1.0 GHCPCU#; 10000.0 N !
PARAMETER G(LAVES_C15,CU:CU;0) 1.0 3*GHSERCU# + VV0005#; 10000.0 N !
PARAMETER G(LIQUID,CU;0) 1.0 GLIQCU#; 10000.0 N !


$$$$$$$$$$$$$$$$$$$$$$$$$$$$$$$$$$$$$$$$$$$$$$$$$$$$$$$$$$$$$$$$$$$$$$$$$$$$$$
$                                     MG                                     $
$$$$$$$$$$$$$$$$$$$$$$$$$$$$$$$$$$$$$$$$$$$$$$$$$$$$$$$$$$$$$$$$$$$$$$$$$$$$$$

PARAMETER G(FCC_A1,MG;0) 1.0 GFCCMG#; 10000.0 N !
PARAMETER G(HCP_A3,MG;0) 1.0 GHCPMG#; 10000.0 N !
PARAMETER G(LAVES_C15,MG:MG;0) 1.0 3*GHSERMG# + VV0008#; 10000.0 N !
PARAMETER G(LIQUID,MG;0) 1.0 GLIQMG#; 10000.0 N !


$$$$$$$$$$$$$$$$$$$$$$$$$$$$$$$$$$$$$$$$$$$$$$$$$$$$$$$$$$$$$$$$$$$$$$$$$$$$$$
$                                   CU-MG                                    $
$$$$$$$$$$$$$$$$$$$$$$$$$$$$$$$$$$$$$$$$$$$$$$$$$$$$$$$$$$$$$$$$$$$$$$$$$$$$$$

PARAMETER G(CUMG2,CU:MG;0) 1.0 GHSERCU# + 2*GHSERMG# + VV0000#; 10000.0 N !
PARAMETER L(FCC_A1,CU,MG;0) 1.0 VV0002#; 10000.0 N !
PARAMETER L(FCC_A1,CU,MG;1) 1.0 VV0001#; 10000.0 N !
PARAMETER L(HCP_A3,CU,MG;0) 1.0 VV0004#; 10000.0 N !
PARAMETER L(HCP_A3,CU,MG;1) 1.0 VV0003#; 10000.0 N !
PARAMETER G(LAVES_C15,CU:MG;0) 1.0 2*GHSERCU# + GHSERMG# + VV0006#; 10000.0 N
   !
PARAMETER G(LAVES_C15,MG:CU;0) 1.0 GHSERCU# + 2*GHSERMG# + VV0007#; 10000.0 N
   !
PARAMETER L(LAVES_C15,CU:CU,MG;0) 1.0 VV0009#; 10000.0 N !
PARAMETER L(LAVES_C15,CU,MG:MG;0) 1.0 VV0010#; 10000.0 N !
PARAMETER L(LIQUID,CU,MG;0) 1.0 VV0014#; 10000.0 N !
PARAMETER L(LIQUID,CU,MG;1) 1.0 VV0013#; 10000.0 N !
PARAMETER L(LIQUID,CU,MG;2) 1.0 VV0012#; 10000.0 N !
PARAMETER L(LIQUID,CU,MG;3) 1.0 VV0011#; 10000.0 N !
